generated by phonopy
   1.0
    13.9853695669984397    0.0000000000000000    0.0000000000000000
     0.0000000000000000   13.9853695669984397    0.0000000000000000
     0.0000000000000000    0.0000000000000000   11.8752051249478754
Ti O
  72  144
Direct
  0.0000000000000000  0.0000000000000000  0.0000000000000000
  0.3333333333333333  0.0000000000000000  0.0000000000000000
  0.6666666666666666  0.0000000000000000  0.0000000000000000
  0.0000000000000000  0.3333333333333333  0.0000000000000000
  0.3333333333333333  0.3333333333333333  0.0000000000000000
  0.6666666666666666  0.3333333333333333  0.0000000000000000
  0.0000000000000000  0.6666666666666666  0.0000000000000000
  0.3333333333333333  0.6666666666666666  0.0000000000000000
  0.6666666666666666  0.6666666666666666  0.0000000000000000
  0.0000000000000000  0.0000000000000000  0.2500000000000000
  0.3333333333333333  0.0000000000000000  0.2500000000000000
  0.6666666666666666  0.0000000000000000  0.2500000000000000
  0.0000000000000000  0.3333333333333333  0.2500000000000000
  0.3333333333333333  0.3333333333333333  0.2500000000000000
  0.6666666666666666  0.3333333333333333  0.2500000000000000
  0.0000000000000000  0.6666666666666666  0.2500000000000000
  0.3333333333333333  0.6666666666666666  0.2500000000000000
  0.6666666666666666  0.6666666666666666  0.2500000000000000
  0.0000000000000000  0.0000000000000000  0.5000000000000000
  0.3333333333333333  0.0000000000000000  0.5000000000000000
  0.6666666666666666  0.0000000000000000  0.5000000000000000
  0.0000000000000000  0.3333333333333333  0.5000000000000000
  0.3333333333333333  0.3333333333333333  0.5000000000000000
  0.6666666666666666  0.3333333333333333  0.5000000000000000
  0.0000000000000000  0.6666666666666666  0.5000000000000000
  0.3333333333333333  0.6666666666666666  0.5000000000000000
  0.6666666666666666  0.6666666666666666  0.5000000000000000
  0.0000000000000000  0.0000000000000000  0.7500000000000000
  0.3333333333333333  0.0000000000000000  0.7500000000000000
  0.6666666666666666  0.0000000000000000  0.7500000000000000
  0.0000000000000000  0.3333333333333333  0.7500000000000000
  0.3333333333333333  0.3333333333333333  0.7500000000000000
  0.6666666666666666  0.3333333333333333  0.7500000000000000
  0.0000000000000000  0.6666666666666666  0.7500000000000000
  0.3333333333333333  0.6666666666666666  0.7500000000000000
  0.6666666666666666  0.6666666666666666  0.7500000000000000
  0.1666666666666667  0.1666666666666667  0.1250000000000000
  0.5000000000000000  0.1666666666666667  0.1250000000000000
  0.8333333333333333  0.1666666666666667  0.1250000000000000
  0.1666666666666667  0.5000000000000000  0.1250000000000000
  0.5000000000000000  0.5000000000000000  0.1250000000000000
  0.8333333333333333  0.5000000000000000  0.1250000000000000
  0.1666666666666667  0.8333333333333333  0.1250000000000000
  0.5000000000000000  0.8333333333333333  0.1250000000000000
  0.8333333333333333  0.8333333333333333  0.1250000000000000
  0.1666666666666667  0.1666666666666667  0.3750000000000000
  0.5000000000000000  0.1666666666666667  0.3750000000000000
  0.8333333333333333  0.1666666666666667  0.3750000000000000
  0.1666666666666667  0.5000000000000000  0.3750000000000000
  0.5000000000000000  0.5000000000000000  0.3750000000000000
  0.8333333333333333  0.5000000000000000  0.3750000000000000
  0.1666666666666667  0.8333333333333333  0.3750000000000000
  0.5000000000000000  0.8333333333333333  0.3750000000000000
  0.8333333333333333  0.8333333333333333  0.3750000000000000
  0.1666666666666667  0.1666666666666667  0.6250000000000000
  0.5000000000000000  0.1666666666666667  0.6250000000000000
  0.8333333333333333  0.1666666666666667  0.6250000000000000
  0.1666666666666667  0.5000000000000000  0.6250000000000000
  0.5000000000000000  0.5000000000000000  0.6250000000000000
  0.8333333333333333  0.5000000000000000  0.6250000000000000
  0.1666666666666667  0.8333333333333333  0.6250000000000000
  0.5000000000000000  0.8333333333333333  0.6250000000000000
  0.8333333333333333  0.8333333333333333  0.6250000000000000
  0.1666666666666667  0.1666666666666667  0.8750000000000000
  0.5000000000000000  0.1666666666666667  0.8750000000000000
  0.8333333333333333  0.1666666666666667  0.8750000000000000
  0.1666666666666667  0.5000000000000000  0.8750000000000000
  0.5000000000000000  0.5000000000000000  0.8750000000000000
  0.8333333333333333  0.5000000000000000  0.8750000000000000
  0.1666666666666667  0.8333333333333333  0.8750000000000000
  0.5000000000000000  0.8333333333333333  0.8750000000000000
  0.8333333333333333  0.8333333333333333  0.8750000000000000
  0.0656532497920709  0.2682251328712605  0.1255450493299980
  0.3984415337954061  0.2682251328712605  0.1250000000000000
  0.7317748671287394  0.2682251328712605  0.1250000000000000
  0.0651082004620728  0.6015584662045939  0.1250000000000000
  0.3984415337954061  0.6015584662045939  0.1250000000000000
  0.7317748671287394  0.6015584662045939  0.1250000000000000
  0.0651082004620728  0.9348917995379271  0.1250000000000000
  0.3984415337954061  0.9348917995379271  0.1250000000000000
  0.7317748671287394  0.9348917995379271  0.1250000000000000
  0.0651082004620728  0.2682251328712605  0.3750000000000000
  0.3984415337954061  0.2682251328712605  0.3750000000000000
  0.7317748671287394  0.2682251328712605  0.3750000000000000
  0.0651082004620728  0.6015584662045939  0.3750000000000000
  0.3984415337954061  0.6015584662045939  0.3750000000000000
  0.7317748671287394  0.6015584662045939  0.3750000000000000
  0.0651082004620728  0.9348917995379271  0.3750000000000000
  0.3984415337954061  0.9348917995379271  0.3750000000000000
  0.7317748671287394  0.9348917995379271  0.3750000000000000
  0.0651082004620728  0.2682251328712605  0.6250000000000000
  0.3984415337954061  0.2682251328712605  0.6250000000000000
  0.7317748671287394  0.2682251328712605  0.6250000000000000
  0.0651082004620728  0.6015584662045939  0.6250000000000000
  0.3984415337954061  0.6015584662045939  0.6250000000000000
  0.7317748671287394  0.6015584662045939  0.6250000000000000
  0.0651082004620728  0.9348917995379271  0.6250000000000000
  0.3984415337954061  0.9348917995379271  0.6250000000000000
  0.7317748671287394  0.9348917995379271  0.6250000000000000
  0.0651082004620728  0.2682251328712605  0.8750000000000000
  0.3984415337954061  0.2682251328712605  0.8750000000000000
  0.7317748671287394  0.2682251328712605  0.8750000000000000
  0.0651082004620728  0.6015584662045939  0.8750000000000000
  0.3984415337954061  0.6015584662045939  0.8750000000000000
  0.7317748671287394  0.6015584662045939  0.8750000000000000
  0.0651082004620728  0.9348917995379271  0.8750000000000000
  0.3984415337954061  0.9348917995379271  0.8750000000000000
  0.7317748671287394  0.9348917995379271  0.8750000000000000
  0.2682251328712605  0.0651082004620728  0.1250000000000000
  0.6015584662045939  0.0651082004620728  0.1250000000000000
  0.9348917995379271  0.0651082004620728  0.1250000000000000
  0.2682251328712605  0.3984415337954061  0.1250000000000000
  0.6015584662045939  0.3984415337954061  0.1250000000000000
  0.9348917995379271  0.3984415337954061  0.1250000000000000
  0.2682251328712605  0.7317748671287394  0.1250000000000000
  0.6015584662045939  0.7317748671287394  0.1250000000000000
  0.9348917995379271  0.7317748671287394  0.1250000000000000
  0.2682251328712605  0.0651082004620728  0.3750000000000000
  0.6015584662045939  0.0651082004620728  0.3750000000000000
  0.9348917995379271  0.0651082004620728  0.3750000000000000
  0.2682251328712605  0.3984415337954061  0.3750000000000000
  0.6015584662045939  0.3984415337954061  0.3750000000000000
  0.9348917995379271  0.3984415337954061  0.3750000000000000
  0.2682251328712605  0.7317748671287394  0.3750000000000000
  0.6015584662045939  0.7317748671287394  0.3750000000000000
  0.9348917995379271  0.7317748671287394  0.3750000000000000
  0.2682251328712605  0.0651082004620728  0.6250000000000000
  0.6015584662045939  0.0651082004620728  0.6250000000000000
  0.9348917995379271  0.0651082004620728  0.6250000000000000
  0.2682251328712605  0.3984415337954061  0.6250000000000000
  0.6015584662045939  0.3984415337954061  0.6250000000000000
  0.9348917995379271  0.3984415337954061  0.6250000000000000
  0.2682251328712605  0.7317748671287394  0.6250000000000000
  0.6015584662045939  0.7317748671287394  0.6250000000000000
  0.9348917995379271  0.7317748671287394  0.6250000000000000
  0.2682251328712605  0.0651082004620728  0.8750000000000000
  0.6015584662045939  0.0651082004620728  0.8750000000000000
  0.9348917995379271  0.0651082004620728  0.8750000000000000
  0.2682251328712605  0.3984415337954061  0.8750000000000000
  0.6015584662045939  0.3984415337954061  0.8750000000000000
  0.9348917995379271  0.3984415337954061  0.8750000000000000
  0.2682251328712605  0.7317748671287394  0.8750000000000000
  0.6015584662045939  0.7317748671287394  0.8750000000000000
  0.9348917995379271  0.7317748671287394  0.8750000000000000
  0.2317748671287371  0.2317748671287371  0.0000000000000000
  0.5651082004620704  0.2317748671287371  0.0000000000000000
  0.8984415337954037  0.2317748671287371  0.0000000000000000
  0.2317748671287371  0.5651082004620704  0.0000000000000000
  0.5651082004620704  0.5651082004620704  0.0000000000000000
  0.8984415337954037  0.5651082004620704  0.0000000000000000
  0.2317748671287371  0.8984415337954037  0.0000000000000000
  0.5651082004620704  0.8984415337954037  0.0000000000000000
  0.8984415337954037  0.8984415337954037  0.0000000000000000
  0.2317748671287371  0.2317748671287371  0.2500000000000000
  0.5651082004620704  0.2317748671287371  0.2500000000000000
  0.8984415337954037  0.2317748671287371  0.2500000000000000
  0.2317748671287371  0.5651082004620704  0.2500000000000000
  0.5651082004620704  0.5651082004620704  0.2500000000000000
  0.8984415337954037  0.5651082004620704  0.2500000000000000
  0.2317748671287371  0.8984415337954037  0.2500000000000000
  0.5651082004620704  0.8984415337954037  0.2500000000000000
  0.8984415337954037  0.8984415337954037  0.2500000000000000
  0.2317748671287371  0.2317748671287371  0.5000000000000000
  0.5651082004620704  0.2317748671287371  0.5000000000000000
  0.8984415337954037  0.2317748671287371  0.5000000000000000
  0.2317748671287371  0.5651082004620704  0.5000000000000000
  0.5651082004620704  0.5651082004620704  0.5000000000000000
  0.8984415337954037  0.5651082004620704  0.5000000000000000
  0.2317748671287371  0.8984415337954037  0.5000000000000000
  0.5651082004620704  0.8984415337954037  0.5000000000000000
  0.8984415337954037  0.8984415337954037  0.5000000000000000
  0.2317748671287371  0.2317748671287371  0.7500000000000000
  0.5651082004620704  0.2317748671287371  0.7500000000000000
  0.8984415337954037  0.2317748671287371  0.7500000000000000
  0.2317748671287371  0.5651082004620704  0.7500000000000000
  0.5651082004620704  0.5651082004620704  0.7500000000000000
  0.8984415337954037  0.5651082004620704  0.7500000000000000
  0.2317748671287371  0.8984415337954037  0.7500000000000000
  0.5651082004620704  0.8984415337954037  0.7500000000000000
  0.8984415337954037  0.8984415337954037  0.7500000000000000
  0.1015584662045962  0.1015584662045962  0.0000000000000000
  0.4348917995379296  0.1015584662045962  0.0000000000000000
  0.7682251328712628  0.1015584662045962  0.0000000000000000
  0.1015584662045962  0.4348917995379296  0.0000000000000000
  0.4348917995379296  0.4348917995379296  0.0000000000000000
  0.7682251328712628  0.4348917995379296  0.0000000000000000
  0.1015584662045962  0.7682251328712628  0.0000000000000000
  0.4348917995379296  0.7682251328712628  0.0000000000000000
  0.7682251328712628  0.7682251328712628  0.0000000000000000
  0.1015584662045962  0.1015584662045962  0.2500000000000000
  0.4348917995379296  0.1015584662045962  0.2500000000000000
  0.7682251328712628  0.1015584662045962  0.2500000000000000
  0.1015584662045962  0.4348917995379296  0.2500000000000000
  0.4348917995379296  0.4348917995379296  0.2500000000000000
  0.7682251328712628  0.4348917995379296  0.2500000000000000
  0.1015584662045962  0.7682251328712628  0.2500000000000000
  0.4348917995379296  0.7682251328712628  0.2500000000000000
  0.7682251328712628  0.7682251328712628  0.2500000000000000
  0.1015584662045962  0.1015584662045962  0.5000000000000000
  0.4348917995379296  0.1015584662045962  0.5000000000000000
  0.7682251328712628  0.1015584662045962  0.5000000000000000
  0.1015584662045962  0.4348917995379296  0.5000000000000000
  0.4348917995379296  0.4348917995379296  0.5000000000000000
  0.7682251328712628  0.4348917995379296  0.5000000000000000
  0.1015584662045962  0.7682251328712628  0.5000000000000000
  0.4348917995379296  0.7682251328712628  0.5000000000000000
  0.7682251328712628  0.7682251328712628  0.5000000000000000
  0.1015584662045962  0.1015584662045962  0.7500000000000000
  0.4348917995379296  0.1015584662045962  0.7500000000000000
  0.7682251328712628  0.1015584662045962  0.7500000000000000
  0.1015584662045962  0.4348917995379296  0.7500000000000000
  0.4348917995379296  0.4348917995379296  0.7500000000000000
  0.7682251328712628  0.4348917995379296  0.7500000000000000
  0.1015584662045962  0.7682251328712628  0.7500000000000000
  0.4348917995379296  0.7682251328712628  0.7500000000000000
  0.7682251328712628  0.7682251328712628  0.7500000000000000
