Ti  O                                   
   1.00000000000000     
     4.6617898556661466    0.0000000000000000    0.0000000000000000
     0.0000000000000000    4.6617898556661466    0.0000000000000000
     0.0000000000000000    0.0000000000000000    2.9688012812369688
   Ti   O 
     2     4
Direct
  0.0000000000000000  0.0000000000000000  0.0000000000000000
  0.5000000000000000  0.5000000000000000  0.5000000000000000
  0.1953246013862184  0.8046753986137816  0.5000000000000000
  0.8046753986137816  0.1953246013862184  0.5000000000000000
  0.6953246013862113  0.6953246013862113  0.0000000000000000
  0.3046753986137887  0.3046753986137887  0.0000000000000000
 
  0.00000000E+00  0.00000000E+00  0.00000000E+00
  0.00000000E+00  0.00000000E+00  0.00000000E+00
  0.00000000E+00  0.00000000E+00  0.00000000E+00
  0.00000000E+00  0.00000000E+00  0.00000000E+00
  0.00000000E+00  0.00000000E+00  0.00000000E+00
  0.00000000E+00  0.00000000E+00  0.00000000E+00
