INCAR created by Atomic Simulation Environment
 ENCUT  = 500.000000
 SIGMA  = 0.040000
 EDIFF  = 1.00e-08
 ALGO   = Fast
 GGA    = PE
 PREC   = Accurate
 SYSTEM = vaspCalc
 ICHARG = 1
 ISMEAR = 0
 ISPIN  = 1
 ISTART = 0
 NELM   = 120
 NELMIN = 4
 NPAR   = 4
 NWRITE = 1
 LCHARG = .FALSE.
 LWAVE  = .FALSE.
