KPOINTS created by Atomic Simulation Environment
0
Gamma
15 15 23 
0 0 0
