Ti  O 
 1.0000000000000000
     4.6617898556661466   -0.0000000000000000    0.0000000000000000
    -0.0000000000000000    4.6617898556661466   -0.0000000000000000
     0.0000000000000000   -0.0000000000000000    2.9688012812369688
 Ti  O  
   2   4
Cartesian
  0.0000000000000000  0.0000000000000000  0.0000000000000000
  2.3308949278330724  2.3308949278330724  1.4844006406184855
  0.9105622453042903  3.7512276103618496  1.4844006406184855
  3.7512276103618496  0.9105622453042903  1.4844006406184855
  3.2414571731373574  3.2414571731373574  0.0000000000000000
  1.4203326825287856  1.4203326825287856 -0.0000000000000000
